regression_itp/proof_duplicate_literals.smt2
(set-option :produce-interpolants true)
(set-option :proof-reduce true)
;(set-option :proof-check true)
;(set-option :verbosity 2)
(set-option :certify-interpolants true)
(set-logic QF_UF)
(declare-fun a () Bool)
(declare-fun b () Bool)
(declare-fun c () Bool)
(declare-fun d () Bool)
(declare-fun e () Bool)
(declare-fun f () Bool)

(assert (!(not a) :named A))
(assert (!(and (or a (or a b)) (and (not c) (or e (or a b))))
    :named B))

(assert (!(and
    (or a d e)
    (or a (not d) e)
    (or a d f)
    (or a (not d) f)
    (or a (not e) (not f) (not b) c)
 )
:named C))
(check-sat)
(get-interpolants A B C)
