regression_itp/log-2023-02-20-10-22-36/proof_duplicate_literals.smt2.out
unsat
((not a)
 (and (not a) (and (or a b) (not c))))
